
Gurobi 8.1.1 (win64, Python) logging started 10/16/19 09:47:53

Optimize a model with 3 rows, 2 columns and 6 nonzeros
Coefficient statistics:
  Matrix range     [2e+00, 1e+01]
  Objective range  [2e+00, 3e+00]
  Bounds range     [0e+00, 0e+00]
  RHS range        [2e+02, 3e+02]
Presolve time: 0.00s
Presolved: 3 rows, 2 columns, 6 nonzeros

Iteration    Objective       Primal Inf.    Dual Inf.      Time
       0    5.0000000e+30   4.875000e+30   5.000000e+00      0s
       2    1.0000000e+02   0.000000e+00   0.000000e+00      0s

Solved in 2 iterations and 0.01 seconds
Optimal objective  1.000000000e+02

Gurobi 8.1.1 (win64, Python) logging started 10/16/19 09:48:04

Optimize a model with 4 rows, 3 columns and 10 nonzeros
Coefficient statistics:
  Matrix range     [8e-01, 3e+00]
  Objective range  [4e+00, 7e+00]
  Bounds range     [0e+00, 0e+00]
  RHS range        [5e+02, 5e+03]
Presolve removed 1 rows and 0 columns
Presolve time: 0.00s
Presolved: 3 rows, 3 columns, 9 nonzeros

Iteration    Objective       Primal Inf.    Dual Inf.      Time
       0    1.7600000e+04   0.000000e+00   0.000000e+00      0s
       0    1.7600000e+04   0.000000e+00   0.000000e+00      0s

Solved in 0 iterations and 0.01 seconds
Optimal objective  1.760000000e+04

Gurobi 8.1.1 (win64, Python) logging started 10/16/19 09:48:16

Optimize a model with 7 rows, 12 columns and 24 nonzeros
Coefficient statistics:
  Matrix range     [1e+00, 1e+00]
  Objective range  [2e+00, 9e+00]
  Bounds range     [0e+00, 0e+00]
  RHS range        [6e+01, 2e+02]
Presolve time: 0.00s
Presolved: 7 rows, 12 columns, 24 nonzeros

Iteration    Objective       Primal Inf.    Dual Inf.      Time
       0    1.8400000e+03   4.000000e+02   0.000000e+00      0s
       3    2.1300000e+03   0.000000e+00   0.000000e+00      0s

Solved in 3 iterations and 0.01 seconds
Optimal objective  2.130000000e+03

Gurobi 8.1.1 (win64, Python) logging started 10/16/19 09:48:24

Optimize a model with 7 rows, 12 columns and 24 nonzeros
Coefficient statistics:
  Matrix range     [1e+00, 1e+00]
  Objective range  [2e+00, 9e+00]
  Bounds range     [0e+00, 0e+00]
  RHS range        [6e+01, 2e+02]
Presolve time: 0.00s
Presolved: 7 rows, 12 columns, 24 nonzeros

Iteration    Objective       Primal Inf.    Dual Inf.      Time
       0    1.7800000e+03   1.700000e+02   0.000000e+00      0s
       4    2.0300000e+03   0.000000e+00   0.000000e+00      0s

Solved in 4 iterations and 0.01 seconds
Optimal objective  2.030000000e+03
